p cnf 20 20
2 -9 5 0
6 -13 -1 0
15 14 18 0
-10 18 11 0
19 7 4 0
15 10 18 0
16 -12 -17 0
18 16 19 0
-12 -4 -13 0
15 -17 -1 0
-12 -6 -3 0
-3 -7 10 0
18 4 10 0
4 3 -1 0
-17 4 -8 0
-8 6 19 0
2 1 8 0
16 -13 -5 0
-19 -18 10 0
-4 15 -6 0
